c Output_time 26.03.2020 18:13:10_+0100 1585242790796811114
c ** Program information **
c program_name                          "QBRG_debug"
c version                               "0.3.20"
c date                                  "25.3.2020"
c gid_id                                "673970833836058123f633335630c185360d632e"
c author                                "Oliver Kullmann"
c url                                   "https://github.com/OKullmann/oklibrary/blob/master/Satisfiability/Transformers/Generators/Random/QBRG.cpp"
c ** Machine information **
c machine_name                          "chyna-Lenovo-G50-70"
c bogomips                              3791.08
c ** Compilation information **
c compiler_version                      "g++ 7.5.0"
c compilation_date                      "Mar_26_2020 11:16:30"
c compilation_options                   "--std=c++17 -pedantic -fmax-errors=5 -Wall -Wextra -g -D_GLIBCXX_DEBUG"
c NDEBUG                                0
c OPTIMIZE                              0
c ** Parameters **
c command-line                          "./QBRG_debug" "e40 a40 40" "191*1,1|2-2,1|3-3,1" "" "1,t" ""
c output                                "QuBlRaGe_120_191_1585242790796652647.qdimacs"
c options                               "filtered,renamed"
c num_quantifier_blocks                 3
c  quantifier_blocks                    1:e1-40 2:a41-80 3:e81-120
c num_clause-blocks                     1
c  clause-blocks                        191 * {1-40,1,1/2} | {41-80,1,1/2} | {81-120,1,1/2}
c num_e-seeds                           30+2=32
c  e-seeds                              1 0 1 0 4 120 2 40 1 40 0 40 1 191 3 1 1 1 1 2 2 2 1 1 2 3 3 1 1 2 1 1585242790796652178
p cnf 120 191
e 1 2 3 4 5 6 7 8 9 10 11 12 13 14 15 16 17 18 19 20 21 22 23 24 25 26 27 28 29 30 31 32 33 34 35 36 37 38 39 40 0
a 41 42 43 44 45 46 47 48 49 50 51 52 53 54 55 56 57 58 59 60 61 62 63 64 65 66 67 68 69 70 71 72 73 74 75 76 77 78 79 80 0
e 81 82 83 84 85 86 87 88 89 90 91 92 93 94 95 96 97 98 99 100 101 102 103 104 105 106 107 108 109 110 111 112 113 114 115 116 117 118 119 120 0
-22 43 -81 0
-2 45 -81 0
30 -50 81 0
-35 56 81 0
37 56 81 0
-11 72 81 0
-26 41 -82 0
2 58 -82 0
20 78 -82 0
-23 53 82 0
29 -73 82 0
-33 -51 -83 0
-27 -59 -83 0
-3 41 83 0
16 -48 -84 0
12 -49 84 0
-31 -50 84 0
-37 50 84 0
40 -41 -85 0
21 52 -85 0
21 58 -85 0
-8 -72 -85 0
10 -79 -85 0
28 -58 85 0
12 65 85 0
-3 67 85 0
40 -48 -86 0
-10 66 -86 0
-6 -68 -86 0
5 76 -86 0
-34 51 86 0
-29 -63 86 0
-11 -45 -87 0
21 78 -87 0
22 -79 -87 0
17 -41 87 0
-19 42 87 0
-31 66 87 0
26 -43 -88 0
-20 -44 88 0
12 54 88 0
-35 -75 88 0
-39 54 -89 0
30 45 89 0
34 -53 89 0
20 62 -90 0
27 70 -90 0
22 -76 -90 0
24 -77 -90 0
33 79 -90 0
-15 -75 90 0
-27 64 -91 0
-16 70 -91 0
-6 53 91 0
-25 61 91 0
-26 74 91 0
-31 77 91 0
-27 -54 -92 0
-30 77 -92 0
27 -74 92 0
27 74 92 0
37 44 -93 0
25 49 -93 0
-11 55 -93 0
37 80 -93 0
25 77 93 0
-3 -77 -94 0
19 55 94 0
-22 -65 94 0
32 78 95 0
6 41 -96 0
27 -48 -96 0
-28 63 -96 0
13 73 -96 0
-7 -78 -96 0
29 76 96 0
24 74 -97 0
38 74 -97 0
19 80 -97 0
-19 56 97 0
-9 -57 97 0
-25 -76 97 0
-35 -72 -98 0
15 -50 98 0
16 -52 98 0
-7 69 98 0
-39 75 98 0
33 -44 -99 0
34 53 -99 0
-22 57 -99 0
12 -75 -99 0
4 -73 99 0
-22 78 99 0
30 64 -100 0
25 -69 -100 0
-21 76 -100 0
-39 41 100 0
7 -51 100 0
-19 -56 100 0
-12 61 100 0
-38 -46 101 0
-4 -58 101 0
13 60 101 0
-12 67 101 0
-9 -69 101 0
-18 74 -102 0
38 80 -102 0
23 52 102 0
2 -59 -103 0
-3 76 -103 0
-26 77 -103 0
-7 42 103 0
-40 -45 103 0
17 -56 103 0
-16 -61 103 0
-31 -79 103 0
38 49 -104 0
33 59 -104 0
-28 53 -105 0
-17 -73 -105 0
-6 -53 105 0
18 56 105 0
-39 46 -106 0
37 60 -106 0
12 62 -106 0
-25 55 106 0
-15 62 106 0
-14 -74 106 0
-28 -77 106 0
37 59 -107 0
9 75 -107 0
-1 80 -107 0
-6 -55 107 0
8 -55 107 0
3 -41 108 0
-35 -76 108 0
7 72 -109 0
27 -78 -109 0
19 46 109 0
-19 44 -110 0
9 52 -110 0
28 -60 -110 0
9 67 -110 0
-15 -77 -110 0
-9 -49 110 0
-7 -63 110 0
2 -46 -111 0
-21 -59 -111 0
-6 58 111 0
13 -43 -112 0
36 49 -112 0
29 -61 -112 0
-2 77 -112 0
10 45 112 0
-6 -54 112 0
17 56 112 0
26 -67 -113 0
20 -79 -113 0
-17 -42 113 0
-11 47 113 0
37 52 113 0
21 -54 113 0
-2 56 113 0
26 -49 -114 0
36 -77 -114 0
20 48 114 0
-13 -59 114 0
39 72 114 0
-23 59 -115 0
-29 48 -116 0
-23 -49 -116 0
26 -55 -116 0
34 -69 -117 0
-21 -43 117 0
30 57 117 0
-29 73 117 0
-32 57 -118 0
-12 71 -118 0
10 80 -118 0
10 -57 118 0
30 -67 118 0
11 60 -119 0
-31 61 -119 0
-7 77 -119 0
31 42 -120 0
7 -55 -120 0
14 -71 -120 0
-18 61 120 0
1 66 120 0
27 71 120 0
-35 -79 120 0
